letting n =  10
letting blocks =  [[2, 3], [2, 6], [2, 10], [3, 2], [3, 3], [3, 4], [3, 7], [4, 1], [4, 3], [4, 6], [5, 2], [5, 6], [5, 8], [6, 5], [6, 7], [6, 9], [7, 2], [7, 8], [7, 9], [7, 10], [8, 1], [8, 5], [8, 10], [9, 2], [9, 5], [9, 8], [9, 9], [10, 1], [10, 5], [10, 6], [10, 7], [10, 10]]
